
Log started (V11.0.0) Sun Apr 13 14:07:39 2008

Tried aggregator 1 time.
Reduced MIP has 240 rows, 8001 columns, and 16040 nonzeros.
Presolve time =    0.06 sec.
Clique table members: 200.
MIP emphasis: balance optimality and feasibility.
MIP search method: dynamic search.
Parallel mode: none, using 1 thread.
Root relaxation solution time =    0.20 sec.

        Nodes                                         Cuts/
   Node  Left     Objective  IInf  Best Integer     Best Node    ItCnt     Gap

*     0+    0                        10262.0000       13.0715      775   99.87%
*     0+    0                           19.0000       13.0715      775   31.20%
      0     0       14.0000    45       19.0000      Fract: 5      791   26.32%
*     0+    0                           18.0000       14.0000      791   22.22%
      0     0       14.0000    44       18.0000   Impl Bds: 1      792   22.22%
*     0+    0                           17.0000       14.0000      792   17.65%
*     0+    0                           16.0000       14.0000      792   12.50%

Repeating presolve.
Tried aggregator 1 time.
MIP Presolve eliminated 0 rows and 6757 columns.
Aggregator did 5 substitutions.
Reduced MIP has 235 rows, 1239 columns, and 2516 nonzeros.
Tried aggregator 1 time.
Represolve time =    0.06 sec.
Clique table members: 612.
MIP emphasis: balance optimality and feasibility.
MIP search method: dynamic search.
Parallel mode: none, using 1 thread.
Root relaxation solution time =    0.03 sec.

        Nodes                                         Cuts/
   Node  Left     Objective  IInf  Best Integer     Best Node    ItCnt     Gap

      0     0       14.0000    68       16.0000       14.0000      348   12.50%
      0     2       14.0000    68       16.0000       14.0000      348   12.50%
    100    83    infeasible             16.0000       14.0000     3461   12.50%
*   140+   14                           15.0000       14.0000     4688    6.67%
    200    43       14.0000   138       15.0000       14.0000    14987    6.67%
    300   117       14.0000    52       15.0000       14.0000    23950    6.67%
    400   161    infeasible             15.0000       14.0000    43302    6.67%
    500   219       14.0000    76       15.0000       14.0000    60725    6.67%
    600   225       14.0000    61       15.0000       14.0000    69206    6.67%
*   659     0      integral     0       14.0000       14.0000    76771    0.00%

Clique cuts applied:  6
Cover cuts applied:  224
Zero-half cuts applied:  11
Gomory fractional cuts applied:  11

Solution pool: 7 solutions saved.

MIP - Integer optimal solution:  Objective = 1.4000000000e+001
Solution time =   17.22 sec.  Iterations = 76771  Nodes = 660


Incumbent solution
Variable Name           Solution Value
Cmax                         14.000000
X_1_28                        1.000000
X_2_33                        1.000000
X_3_1                         1.000000
X_4_22                        1.000000
X_5_6                         1.000000
X_6_4                         1.000000
X_7_35                        1.000000
X_8_40                        1.000000
X_9_37                        1.000000
X_10_40                       1.000000
X_11_28                       1.000000
X_12_13                       1.000000
X_13_7                        1.000000
X_14_6                        1.000000
X_15_30                       1.000000
X_16_16                       1.000000
X_17_4                        1.000000
X_18_9                        1.000000
X_19_24                       1.000000
X_20_16                       1.000000
X_21_2                        1.000000
X_22_22                       1.000000
X_23_37                       1.000000
X_24_15                       1.000000
X_25_27                       1.000000
X_26_36                       1.000000
X_27_40                       1.000000
X_28_1                        1.000000
X_29_16                       1.000000
X_30_22                       1.000000
X_31_31                       1.000000
X_32_25                       1.000000
X_33_8                        1.000000
X_34_38                       1.000000
X_35_12                       1.000000
X_36_5                        1.000000
X_37_16                       1.000000
X_38_28                       1.000000
X_39_30                       1.000000
X_40_40                       1.000000
X_41_21                       1.000000
X_42_32                       1.000000
X_43_21                       1.000000
X_44_32                       1.000000
X_45_3                        1.000000
X_46_18                       1.000000
X_47_24                       1.000000
X_48_26                       1.000000
X_49_21                       1.000000
X_50_21                       1.000000
X_51_4                        1.000000
X_52_3                        1.000000
X_53_16                       1.000000
X_54_32                       1.000000
X_55_17                       1.000000
X_56_5                        1.000000
X_57_25                       1.000000
X_58_25                       1.000000
X_59_31                       1.000000
X_60_11                       1.000000
X_61_2                        1.000000
X_62_29                       1.000000
X_63_25                       1.000000
X_64_20                       1.000000
X_65_33                       1.000000
X_66_22                       1.000000
X_67_37                       1.000000
X_68_9                        1.000000
X_69_9                        1.000000
X_70_24                       1.000000
X_71_35                       1.000000
X_72_32                       1.000000
X_73_8                        1.000000
X_74_8                        1.000000
X_75_24                       1.000000
X_76_11                       1.000000
X_77_30                       1.000000
X_78_9                        1.000000
X_79_12                       1.000000
X_80_19                       1.000000
X_81_38                       1.000000
X_82_10                       1.000000
X_83_8                        1.000000
X_84_23                       1.000000
X_85_18                       1.000000
X_86_35                       1.000000
X_87_38                       1.000000
X_88_13                       1.000000
X_89_19                       1.000000
X_90_14                       1.000000
X_91_19                       1.000000
X_92_35                       1.000000
X_93_25                       1.000000
X_94_34                       1.000000
X_95_24                       1.000000
X_96_17                       1.000000
X_97_31                       1.000000
X_98_5                        1.000000
X_99_6                        1.000000
X_100_9                       1.000000
X_101_10                      1.000000
X_102_4                       1.000000
X_103_29                      1.000000
X_104_20                      1.000000
X_105_15                      1.000000
X_106_10                      1.000000
X_107_36                      1.000000
X_108_36                      1.000000
X_109_6                       1.000000
X_110_40                      1.000000
X_111_17                      1.000000
X_112_19                      1.000000
X_113_23                      1.000000
X_114_6                       1.000000
X_115_30                      1.000000
X_116_13                      1.000000
X_117_20                      1.000000
X_118_29                      1.000000
X_119_15                      1.000000
X_120_15                      1.000000
X_121_7                       1.000000
X_122_18                      1.000000
X_123_28                      1.000000
X_124_1                       1.000000
X_125_18                      1.000000
X_126_25                      1.000000
X_127_26                      1.000000
X_128_26                      1.000000
X_129_7                       1.000000
X_130_29                      1.000000
X_131_35                      1.000000
X_132_18                      1.000000
X_133_35                      1.000000
X_134_8                       1.000000
X_135_32                      1.000000
X_136_17                      1.000000
X_137_14                      1.000000
X_138_34                      1.000000
X_139_31                      1.000000
X_140_7                       1.000000
X_141_37                      1.000000
X_142_2                       1.000000
X_143_24                      1.000000
X_144_37                      1.000000
X_145_11                      1.000000
X_146_20                      1.000000
X_147_13                      1.000000
X_148_11                      1.000000
X_149_38                      1.000000
X_150_36                      1.000000
X_151_13                      1.000000
X_152_25                      1.000000
X_153_40                      1.000000
X_154_7                       1.000000
X_155_15                      1.000000
X_156_5                       1.000000
X_157_33                      1.000000
X_158_20                      1.000000
X_159_10                      1.000000
X_160_23                      1.000000
X_161_11                      1.000000
X_162_29                      1.000000
X_163_9                       1.000000
X_164_25                      1.000000
X_165_35                      1.000000
X_166_3                       1.000000
X_167_5                       1.000000
X_168_28                      1.000000
X_169_19                      1.000000
X_170_20                      1.000000
X_171_34                      1.000000
X_172_2                       1.000000
X_173_33                      1.000000
X_174_22                      1.000000
X_175_31                      1.000000
X_176_12                      1.000000
X_177_38                      1.000000
X_178_9                       1.000000
X_179_39                      1.000000
X_180_15                      1.000000
X_181_29                      1.000000
X_182_39                      1.000000
X_183_36                      1.000000
X_184_12                      1.000000
X_185_34                      1.000000
X_186_39                      1.000000
X_187_26                      1.000000
X_188_26                      1.000000
X_189_14                      1.000000
X_190_12                      1.000000
X_191_27                      1.000000
X_192_14                      1.000000
X_193_27                      1.000000
X_194_8                       1.000000
X_195_2                       1.000000
X_196_27                      1.000000
X_197_23                      1.000000
X_198_3                       1.000000
X_199_39                      1.000000
X_200_19                      1.000000
All other variables in the range 1-8001 are 0.
